DIMACS2
20 111 150 127 109 147 98 156 124 28 80 13 43 8 132 121 96 6 81 14 89
p edge 160 373
e 0 114 1.0
e 0 142 1.0
e 1 46 2.0
e 1 104 1.0
e 2 130 1.0
e 2 141 1.0
e 3 70 1.0
e 3 88 1.0
e 4 52 2.0
e 4 143 2.0
e 5 129 1.0
e 5 125 1.0
e 6 128 38.0
e 6 9 4.0
e 6 43 13.0
e 6 80 14.0
e 6 8 47.0
e 7 84 2.0
e 7 45 1.0
e 8 141 20.0
e 8 73 15.0
e 8 80 24.0
e 8 156 38.0
e 8 81 14.0
e 8 13 28.0
e 9 101 2.0
e 9 141 2.0
e 10 130 2.0
e 10 6 8.0
e 11 89 39.0
e 11 29 1.0
e 12 143 1.0
e 12 59 2.0
e 13 37 4.0
e 13 42 1.0
e 13 98 25.0
e 13 6 44.0
e 13 156 19.0
e 14 39 10.0
e 14 142 26.0
e 14 80 23.0
e 14 156 1.0
e 14 147 5.0
e 14 96 47.0
e 15 5 1.0
e 15 148 1.0
e 16 127 13.0
e 16 158 2.0
e 17 117 2.0
e 17 46 1.0
e 18 111 17.0
e 18 135 1.0
e 19 88 1.0
e 19 151 1.0
e 20 73 1.0
e 20 150 5.0
e 21 113 1.0
e 21 73 2.0
e 22 73 1.0
e 22 123 1.0
e 23 107 2.0
e 23 68 1.0
e 24 150 11.0
e 24 124 45.0
e 25 66 1.0
e 25 8 9.0
e 26 121 15.0
e 26 13 22.0
e 27 78 2.0
e 27 108 2.0
e 28 94 31.0
e 28 134 27.0
e 28 124 45.0
e 28 121 6.0
e 28 127 10.0
e 28 96 3.0
e 28 132 43.0
e 28 109 44.0
e 28 80 14.0
e 29 140 1.0
e 29 14 11.0
e 30 143 1.0
e 30 72 2.0
e 31 25 1.0
e 31 156 6.0
e 32 74 2.0
e 32 25 2.0
e 33 113 1.0
e 33 19 1.0
e 34 13 47.0
e 34 156 40.0
e 35 53 1.0
e 35 15 1.0
e 36 75 1.0
e 36 18 2.0
e 37 100 1.0
e 37 33 4.0
e 38 87 1.0
e 38 41 1.0
e 39 119 2.0
e 39 6 27.0
e 40 125 4.0
e 40 14 30.0
e 41 129 1.0
e 41 72 1.0
e 42 126 1.0
e 42 6 46.0
e 43 103 29.0
e 43 93 42.0
e 43 132 44.0
e 43 81 16.0
e 43 89 24.0
e 43 96 13.0
e 43 98 27.0
e 44 123 2.0
e 44 10 1.0
e 45 113 1.0
e 45 50 1.0
e 46 126 1.0
e 46 49 1.0
e 47 0 1.0
e 47 92 1.0
e 48 134 2.0
e 48 89 49.0
e 49 40 4.0
e 49 4 1.0
e 50 118 1.0
e 50 94 2.0
e 51 37 5.0
e 51 115 1.0
e 52 44 1.0
e 52 118 1.0
e 53 103 1.0
e 53 80 49.0
e 54 96 8.0
e 54 151 1.0
e 55 132 49.0
e 55 31 2.0
e 56 88 2.0
e 56 130 1.0
e 57 1 2.0
e 57 69 1.0
e 58 2 1.0
e 58 92 1.0
e 59 51 1.0
e 59 29 1.0
e 60 77 2.0
e 60 155 1.0
e 61 87 3.0
e 61 81 16.0
e 62 35 2.0
e 62 2 1.0
e 63 150 6.0
e 63 96 1.0
e 64 52 1.0
e 64 56 2.0
e 65 105 3.0
e 65 135 1.0
e 66 59 1.0
e 66 14 22.0
e 67 44 1.0
e 67 58 1.0
e 68 88 1.0
e 68 64 1.0
e 69 11 1.0
e 69 31 1.0
e 70 135 1.0
e 70 129 1.0
e 71 44 1.0
e 71 129 1.0
e 72 1 2.0
e 72 16 2.0
e 73 152 2.0
e 73 92 1.0
e 74 83 1.0
e 74 127 30.0
e 75 136 1.0
e 75 114 1.0
e 76 140 2.0
e 76 147 32.0
e 77 135 1.0
e 77 154 5.0
e 78 6 46.0
e 78 116 1.0
e 79 48 1.0
e 79 81 15.0
e 80 46 45.0
e 80 96 17.0
e 81 133 18.0
e 81 142 38.0
e 81 89 40.0
e 82 53 1.0
e 82 71 3.0
e 83 98 32.0
e 83 11 1.0
e 84 53 1.0
e 84 87 2.0
e 85 77 1.0
e 85 76 1.0
e 86 57 1.0
e 86 89 9.0
e 87 56 1.0
e 87 70 1.0
e 88 122 1.0
e 88 80 29.0
e 89 71 48.0
e 89 79 32.0
e 89 96 34.0
e 90 91 1.0
e 90 9 1.0
e 91 96 30.0
e 91 7 1.0
e 92 147 15.0
e 92 136 1.0
e 93 123 1.0
e 93 9 3.0
e 94 33 1.0
e 94 141 1.0
e 95 52 1.0
e 95 79 1.0
e 96 11 6.0
e 96 113 26.0
e 97 58 1.0
e 97 17 2.0
e 98 23 47.0
e 98 151 17.0
e 98 89 12.0
e 98 81 43.0
e 98 109 39.0
e 98 8 8.0
e 99 9 1.0
e 99 69 1.0
e 100 146 1.0
e 100 21 1.0
e 101 39 1.0
e 101 131 1.0
e 102 149 2.0
e 102 53 2.0
e 103 152 1.0
e 103 132 30.0
e 104 101 1.0
e 104 12 1.0
e 105 146 2.0
e 105 74 1.0
e 106 30 3.0
e 106 104 2.0
e 107 81 27.0
e 107 63 1.0
e 108 1 1.0
e 108 104 2.0
e 109 43 28.0
e 109 4 19.0
e 109 111 17.0
e 109 13 46.0
e 109 14 28.0
e 109 147 16.0
e 110 143 2.0
e 110 66 1.0
e 111 127 46.0
e 111 153 1.0
e 111 121 5.0
e 111 124 24.0
e 111 43 23.0
e 111 28 37.0
e 111 98 37.0
e 112 66 2.0
e 112 156 22.0
e 113 104 2.0
e 113 66 1.0
e 114 74 3.0
e 114 109 9.0
e 115 131 1.0
e 115 126 1.0
e 116 57 1.0
e 116 12 1.0
e 117 32 1.0
e 117 145 1.0
e 118 125 1.0
e 118 117 1.0
e 119 95 2.0
e 119 147 6.0
e 120 61 2.0
e 120 35 1.0
e 121 45 11.0
e 121 85 30.0
e 121 109 16.0
e 121 124 18.0
e 121 127 37.0
e 122 73 1.0
e 122 118 1.0
e 123 122 1.0
e 123 80 14.0
e 124 27 13.0
e 124 81 42.0
e 124 127 42.0
e 124 132 10.0
e 124 147 3.0
e 125 141 1.0
e 125 107 1.0
e 126 141 2.0
e 126 76 1.0
e 127 145 25.0
e 127 48 14.0
e 127 132 49.0
e 128 141 1.0
e 128 36 1.0
e 129 130 3.0
e 129 58 1.0
e 130 57 2.0
e 130 112 2.0
e 131 59 1.0
e 131 77 1.0
e 132 147 38.0
e 132 136 8.0
e 132 111 48.0
e 133 45 2.0
e 133 70 1.0
e 134 129 1.0
e 134 20 2.0
e 135 21 1.0
e 135 66 1.0
e 136 22 1.0
e 136 80 27.0
e 137 45 2.0
e 137 16 1.0
e 138 85 2.0
e 138 102 2.0
e 139 144 1.0
e 139 146 1.0
e 140 118 1.0
e 141 52 1.0
e 141 61 2.0
e 142 116 1.0
e 142 91 1.0
e 143 106 1.0
e 143 41 1.0
e 144 66 1.0
e 144 33 1.0
e 145 12 2.0
e 145 45 2.0
e 146 68 1.0
e 146 87 3.0
e 147 89 6.0
e 147 107 9.0
e 148 103 1.0
e 148 10 1.0
e 149 63 1.0
e 149 68 1.0
e 150 8 38.0
e 150 114 42.0
e 150 121 9.0
e 150 124 28.0
e 150 127 29.0
e 150 132 1.0
e 151 149 1.0
e 151 71 1.0
e 152 94 2.0
e 152 31 1.0
e 153 67 2.0
e 153 32 1.0
e 154 95 3.0
e 154 13 16.0
e 155 121 4.0
e 155 77 4.0
e 156 104 49.0
e 156 129 38.0
e 156 147 6.0
e 157 99 1.0
e 157 66 1.0
e 158 17 1.0
e 158 70 1.0
e 159 82 2.0
e 159 27 1.0
